This is Ipopt version 3.10.0, running with linear solver ma27.

Number of nonzeros in equality constraint Jacobian...:        2
Number of nonzeros in inequality constraint Jacobian.:        4
Number of nonzeros in Lagrangian Hessian.............:        0

Total number of variables............................:        2
                     variables with only lower bounds:        0
                variables with lower and upper bounds:        2
                     variables with only upper bounds:        0
Total number of equality constraints.................:        1
Total number of inequality constraints...............:        2
        inequality constraints with only lower bounds:        0
   inequality constraints with lower and upper bounds:        0
        inequality constraints with only upper bounds:        2

iter    objective    inf_pr   inf_du lg(mu)  ||d||  lg(rg) alpha_du alpha_pr  ls
   0  9.6100000e+04 4.66e-01 3.00e+02   0.0 0.00e+00    -  0.00e+00 0.00e+00   0
   1  9.5481862e+04 4.63e-01 4.10e+03   2.0 3.67e+02    -  4.20e-01 4.39e-03f  1
   2  1.0245151e+05 2.77e-01 1.33e+05   1.6 1.81e+02    -  9.91e-03 3.37e-01h  1
   3  1.2425692e+05 4.21e-02 2.36e+02   2.3 1.18e+02    -  1.00e+00 1.00e+00h  1
   4  1.2812649e+05 8.57e-04 4.97e+02   1.1 9.51e+00    -  9.95e-01 9.35e-01h  1
   5  1.2824288e+05 4.61e-05 4.56e+00  -0.7 1.64e-01    -  1.00e+00 1.00e+00h  1
   6  1.2822811e+05 8.59e-06 2.96e-01  -2.1 2.14e-02    -  1.00e+00 9.94e-01f  1
   7  1.2822925e+05 7.86e-07 1.38e-05  -4.1 2.08e-03    -  1.00e+00 1.00e+00h  1

Number of Iterations....: 7

                                   (scaled)                 (unscaled)
Objective...............:   1.2822925440000241e+05    1.2822925440000241e+05
Dual infeasibility......:   1.3837336887503743e-05    1.3837336887503743e-05
Constraint violation....:   7.8557309660001047e-07    7.8557309660001047e-07
Complementarity.........:   8.2401376585444346e-05    8.2401376585444346e-05
Overall NLP error.......:   7.8557309660001047e-07    8.2401376585444346e-05


Number of objective function evaluations             = 8
Number of objective gradient evaluations             = 8
Number of equality constraint evaluations            = 8
Number of inequality constraint evaluations          = 8
Number of equality constraint Jacobian evaluations   = 8
Number of inequality constraint Jacobian evaluations = 8
Number of Lagrangian Hessian evaluations             = 0
Total CPU secs in IPOPT (w/o function evaluations)   =      0.005
Total CPU secs in NLP function evaluations           =      6.016

EXIT: Optimal Solution Found.
